\ENCODING=ISO-8859-1
\Problem name: 

Maximize
 obj: one + 2 two + 3 three + [ - 33 one ^2 + 12 one * two - 22 two ^2
      + 23 two * three - 11 three ^2 ] / 2
Subject To
 c1: - one + two + three <= 20
 c2: one - 3 two + three <= 30
Bounds
 0 <= one <= 40
 0 <= two <= 40
 0 <= three <= 40
End
